tsp_instances/TSP50/instance106.tsp
NODE_COORD_SECTION
0 151 19
1 18 170
2 139 155
3 84 72
4 173 56
5 98 192
6 199 121
7 114 131
8 176 147
9 12 159
10 58 101
11 181 128
12 119 150
13 5 185
14 84 25
15 76 139
16 138 42
17 80 95
18 37 61
19 73 114
20 141 123
21 176 25
22 116 89
23 41 9
24 100 137
25 74 88
26 120 132
27 24 137
28 15 142
29 113 163
30 29 176
31 5 140
32 35 20
33 42 186
34 124 50
35 157 110
36 4 31
37 14 131
38 127 135
39 147 122
40 15 16
41 156 97
42 63 94
43 173 3
44 168 164
45 197 98
46 141 83
47 166 173
48 31 51
49 112 20
