tsp_instances/TSP50/instance106.opt.tour
TOUR_SECTION
1
17
35
50
15
24
33
41
37
49
19
43
11
20
18
26
4
23
47
42
36
40
21
39
27
8
25
16
28
38
32
29
10
2
14
31
34
6
30
13
3
48
45
9
12
7
46
5
22
44
-1